8347.0
1 0 1 1 0 1 1 1 1 1 1 0 1 0 1 1 1 0 1 1 
12 10 3 9 15 18 16 3 16 16 8 18 6 10 6 15 0 2 14 14 5 9 9 8 12 8 3 16 2 3 7 19 6 8 14 10 10 0 0 7 0 3 3 16 9 5 8 19 15 15 16 2 7 3 2 5 2 14 14 14 3 3 3 3 3 3 0 15 19 6 10 18 19 19 19 18 18 18 19 19 